webassembly/ejemplos_dzn/12/folder12_json_61.dzn
TERM = { '.', 'in_1', 'local_0', 'local_1', 'in_2', 'in_3', 'in_0'};
null = '.';
s = 12;
n = 10;
ndeps = 0;
max_registers_sz = 5;
NR = 2;
registers = [|'local_0', 'in_1', |'local_1', 'in_1'|];
dependencies = [| |];
GET_ENUM = { GET1, GET2, GET3, GET4, GET5, GET6, GET7};
SET_ENUM = { SET1, SET2, SET3, SET4, SET5, SET6, SET7};
TEE_ENUM = { TEE1, TEE2, TEE3, TEE4, TEE5, TEE6, TEE7};
N = 2;
OP = { 'i32.store16_5', 'i32.store16_11' };
in_ops = [2, 2 ];
out_ops = [0, 0 ];
in1 = ['in_1', 'in_1' ];
in2 = ['in_2', 'in_3' ];
in3 = ['.', '.' ];
out1 = ['.', '.' ];
out2 = ['.', '.' ];
out3 = ['.', '.' ];
comm = [false, false ];
gas = [1, 1 ];
sz = [1, 1 ];
stor = [true, true ];
lb = [ 1, 1 ];
ub = [ 12, 12 ];
startstack = [ 'in_0', 'in_1', 'in_2', 'in_3', null, null, null, null, null, null ];
endstack = [ null, null, null, null, null, null, null, null, null, null ];
