webassembly/ejemplos_results/12/folder12_json_61.txt
value = 12;
fgas = [1, 1, 1, 1, 1, 1, 1, 1, 1, 1, 1, 1];
fsize = [1, 1, 1, 1, 1, 1, 1, 1, 1, 1, 1, 1];
states = 
[| in_0, in_1, in_2, in_3, '.', '.', '.', '.', '.', '.'
 | in_0, in_1, in_2, in_3, '.', '.', '.', '.', '.', '.'
 | in_1, in_2, in_3,  '.', '.', '.', '.', '.', '.', '.'
 | in_1, in_3,  '.',  '.', '.', '.', '.', '.', '.', '.'
 | in_0, in_1,  '.',  '.', '.', '.', '.', '.', '.', '.'
 | in_1,  '.',  '.',  '.', '.', '.', '.', '.', '.', '.'
 | in_1,  '.',  '.',  '.', '.', '.', '.', '.', '.', '.'
 | in_1,  '.',  '.',  '.', '.', '.', '.', '.', '.', '.'
 | in_1,  '.',  '.',  '.', '.', '.', '.', '.', '.', '.'
 | in_1,  '.',  '.',  '.', '.', '.', '.', '.', '.', '.'
 | in_1,  '.',  '.',  '.', '.', '.', '.', '.', '.', '.'
 |  '.',  '.',  '.',  '.', '.', '.', '.', '.', '.', '.'
 |  '.',  '.',  '.',  '.', '.', '.', '.', '.', '.', '.'
 |];
register_states = 
[| local_0, local_1, '.', '.', '.', '.',  '.'
 | local_0, local_1, '.', '.', '.', '.', in_0
 |    in_0, local_1, '.', '.', '.', '.', in_0
 |    in_0, local_1, '.', '.', '.', '.', in_0
 |    in_0, local_1, '.', '.', '.', '.', in_0
 |    in_0, local_1, '.', '.', '.', '.', in_0
 |    in_0,    in_1, '.', '.', '.', '.', in_0
 |    in_0,    in_1, '.', '.', '.', '.', in_1
 |    in_0,    in_1, '.', '.', '.', '.', in_1
 |    in_0,    in_1, '.', '.', '.', '.', in_1
 |    in_1,    in_1, '.', '.', '.', '.', in_1
 |    in_1,    in_1, '.', '.', '.', '.', in_1
 |    in_1,    in_1, '.', '.', '.', '.',  '.'
 |];
program = [TEE(TEE7), S(SET1), O('i32.store16_5'), O('i32.store16_11'), S(SET7), TEE(TEE2), TEE(TEE7), TEE(TEE7), TEE(TEE7), TEE(TEE1), S(SET1), TEE(TEE7)];
% time elapsed: 0.11 s
----------
value = 11;
fgas = [1, 1, 1, 1, 1, 1, 1, 1, 1, 1, 1, 0];
fsize = [1, 1, 1, 1, 1, 1, 1, 1, 1, 1, 1, 1];
states = 
[| in_0, in_1, in_2, in_3, '.', '.', '.', '.', '.', '.'
 | in_1, in_2, in_3,  '.', '.', '.', '.', '.', '.', '.'
 | in_1, in_2,  '.',  '.', '.', '.', '.', '.', '.', '.'
 | in_1, in_2,  '.',  '.', '.', '.', '.', '.', '.', '.'
 | in_1, in_2,  '.',  '.', '.', '.', '.', '.', '.', '.'
 | in_1, in_3,  '.',  '.', '.', '.', '.', '.', '.', '.'
 | in_1, in_3,  '.',  '.', '.', '.', '.', '.', '.', '.'
 |  '.', in_1,  '.',  '.', '.', '.', '.', '.', '.', '.'
 |  '.', in_1,  '.',  '.', '.', '.', '.', '.', '.', '.'
 |  '.', in_1,  '.',  '.', '.', '.', '.', '.', '.', '.'
 | in_1,  '.',  '.',  '.', '.', '.', '.', '.', '.', '.'
 |  '.',  '.',  '.',  '.', '.', '.', '.', '.', '.', '.'
 |  '.',  '.',  '.',  '.', '.', '.', '.', '.', '.', '.'
 |];
register_states = 
[| local_0, local_1, '.', '.', '.',  '.', '.'
 | local_0, local_1, '.', '.', '.', in_0, '.'
 | local_0, local_1, '.', '.', '.', in_0, '.'
 | local_0, local_1, '.', '.', '.', in_0, '.'
 | local_0, local_1, '.', '.', '.', in_0, '.'
 | local_0, local_1, '.', '.', '.', in_0, '.'
 | local_0,    in_1, '.', '.', '.', in_0, '.'
 | local_0,    in_1, '.', '.', '.', in_0, '.'
 | local_0,    in_1, '.', '.', '.', in_0, '.'
 | local_0,    in_1, '.', '.', '.',  '.', '.'
 | local_0,    in_1, '.', '.', '.',  '.', '.'
 |    in_1,    in_1, '.', '.', '.',  '.', '.'
 |    in_1,    in_1, '.', '.', '.',  '.', '.'
 |];
program = [S(SET6), O('i32.store16_5'), O('i32.store16_5'), O('i32.store16_5'), O('i32.store16_5'), TEE(TEE2), O('i32.store16_11'), TEE(TEE7), TEE(TEE6), G(GET2), S(SET1), NOP];
% time elapsed: 0.11 s
----------
value = 10;
fgas = [1, 1, 1, 1, 1, 1, 1, 1, 1, 1, 0, 0];
fsize = [1, 1, 1, 1, 1, 1, 1, 1, 1, 1, 1, 1];
states = 
[| in_0, in_1, in_2, in_3, '.', '.', '.', '.', '.', '.'
 | in_1, in_2, in_3,  '.', '.', '.', '.', '.', '.', '.'
 | in_1, in_2,  '.',  '.', '.', '.', '.', '.', '.', '.'
 | in_1, in_2,  '.',  '.', '.', '.', '.', '.', '.', '.'
 | in_1, in_2,  '.',  '.', '.', '.', '.', '.', '.', '.'
 | in_1, in_3,  '.',  '.', '.', '.', '.', '.', '.', '.'
 | in_1, in_1,  '.',  '.', '.', '.', '.', '.', '.', '.'
 | in_1,  '.',  '.',  '.', '.', '.', '.', '.', '.', '.'
 | in_1,  '.',  '.',  '.', '.', '.', '.', '.', '.', '.'
 |  '.',  '.',  '.',  '.', '.', '.', '.', '.', '.', '.'
 |  '.',  '.',  '.',  '.', '.', '.', '.', '.', '.', '.'
 |  '.',  '.',  '.',  '.', '.', '.', '.', '.', '.', '.'
 |  '.',  '.',  '.',  '.', '.', '.', '.', '.', '.', '.'
 |];
register_states = 
[| local_0, local_1, '.', '.', '.', '.',  '.'
 |    in_0, local_1, '.', '.', '.', '.',  '.'
 |    in_0, local_1, '.', '.', '.', '.',  '.'
 |    in_0, local_1, '.', '.', '.', '.',  '.'
 |    in_0, local_1, '.', '.', '.', '.',  '.'
 |    in_0, local_1, '.', '.', '.', '.',  '.'
 |    in_0, local_1, '.', '.', '.', '.',  '.'
 |    in_1, local_1, '.', '.', '.', '.',  '.'
 |    in_1,    in_1, '.', '.', '.', '.',  '.'
 |    in_1,    in_1, '.', '.', '.', '.', in_1
 |    in_1,    in_1, '.', '.', '.', '.',  '.'
 |    in_1,    in_1, '.', '.', '.', '.',  '.'
 |    in_1,    in_1, '.', '.', '.', '.',  '.'
 |];
program = [S(SET1), O('i32.store16_5'), O('i32.store16_5'), O('i32.store16_5'), O('i32.store16_5'), O('i32.store16_11'), S(SET1), TEE(TEE2), S(SET7), TEE(TEE7), NOP, NOP];
% time elapsed: 0.11 s
----------
value = 9;
fgas = [1, 1, 1, 1, 1, 1, 1, 1, 1, 0, 0, 0];
fsize = [1, 1, 1, 1, 1, 1, 1, 1, 1, 1, 1, 1];
states = 
[| in_0, in_1, in_2, in_3, '.', '.', '.', '.', '.', '.'
 | in_1, in_2, in_3,  '.', '.', '.', '.', '.', '.', '.'
 | in_1, in_2,  '.',  '.', '.', '.', '.', '.', '.', '.'
 | in_1, in_2,  '.',  '.', '.', '.', '.', '.', '.', '.'
 | in_1, in_2,  '.',  '.', '.', '.', '.', '.', '.', '.'
 | in_1, in_2,  '.',  '.', '.', '.', '.', '.', '.', '.'
 | in_1, in_3,  '.',  '.', '.', '.', '.', '.', '.', '.'
 | in_1, in_1,  '.',  '.', '.', '.', '.', '.', '.', '.'
 | in_1,  '.',  '.',  '.', '.', '.', '.', '.', '.', '.'
 |  '.',  '.',  '.',  '.', '.', '.', '.', '.', '.', '.'
 |  '.',  '.',  '.',  '.', '.', '.', '.', '.', '.', '.'
 |  '.',  '.',  '.',  '.', '.', '.', '.', '.', '.', '.'
 |  '.',  '.',  '.',  '.', '.', '.', '.', '.', '.', '.'
 |];
register_states = 
[| local_0, local_1, '.', '.', '.', '.', '.'
 | local_0,    in_0, '.', '.', '.', '.', '.'
 | local_0,    in_0, '.', '.', '.', '.', '.'
 | local_0,    in_0, '.', '.', '.', '.', '.'
 | local_0,    in_0, '.', '.', '.', '.', '.'
 | local_0,    in_0, '.', '.', '.', '.', '.'
 | local_0,    in_0, '.', '.', '.', '.', '.'
 | local_0,    in_0, '.', '.', '.', '.', '.'
 |    in_1,    in_0, '.', '.', '.', '.', '.'
 |    in_1,    in_1, '.', '.', '.', '.', '.'
 |    in_1,    in_1, '.', '.', '.', '.', '.'
 |    in_1,    in_1, '.', '.', '.', '.', '.'
 |    in_1,    in_1, '.', '.', '.', '.', '.'
 |];
program = [S(SET2), O('i32.store16_5'), O('i32.store16_5'), O('i32.store16_5'), O('i32.store16_5'), O('i32.store16_5'), O('i32.store16_11'), S(SET1), S(SET2), NOP, NOP, NOP];
% time elapsed: 0.11 s
----------
value = 8;
fgas = [1, 2, 1, 1, 1, 1, 1, 1, 0, 0, 0, 0];
fsize = [1, 1, 1, 1, 1, 1, 1, 1, 1, 1, 1, 1];
states = 
[| in_0, in_1, in_2, in_3, '.', '.', '.', '.', '.', '.'
 | in_0, in_1, in_2, in_3, '.', '.', '.', '.', '.', '.'
 | in_1, in_2, in_3,  '.', '.', '.', '.', '.', '.', '.'
 | in_1, in_2,  '.',  '.', '.', '.', '.', '.', '.', '.'
 | in_1, in_2,  '.',  '.', '.', '.', '.', '.', '.', '.'
 | in_1, in_3,  '.',  '.', '.', '.', '.', '.', '.', '.'
 | in_1, in_3,  '.',  '.', '.', '.', '.', '.', '.', '.'
 | in_1, in_3,  '.',  '.', '.', '.', '.', '.', '.', '.'
 |  '.',  '.',  '.',  '.', '.', '.', '.', '.', '.', '.'
 |  '.',  '.',  '.',  '.', '.', '.', '.', '.', '.', '.'
 |  '.',  '.',  '.',  '.', '.', '.', '.', '.', '.', '.'
 |  '.',  '.',  '.',  '.', '.', '.', '.', '.', '.', '.'
 |  '.',  '.',  '.',  '.', '.', '.', '.', '.', '.', '.'
 |];
register_states = 
[| local_0, local_1, '.', '.', '.', '.', '.'
 | local_0,    in_0, '.', '.', '.', '.', '.'
 | local_0,    in_0, '.', '.', '.', '.', '.'
 | local_0,    in_0, '.', '.', '.', '.', '.'
 | local_0,    in_0, '.', '.', '.', '.', '.'
 | local_0,    in_0, '.', '.', '.', '.', '.'
 | local_0,    in_1, '.', '.', '.', '.', '.'
 |    in_1,    in_1, '.', '.', '.', '.', '.'
 |    in_1,    in_1, '.', '.', '.', '.', '.'
 |    in_1,    in_1, '.', '.', '.', '.', '.'
 |    in_1,    in_1, '.', '.', '.', '.', '.'
 |    in_1,    in_1, '.', '.', '.', '.', '.'
 |    in_1,    in_1, '.', '.', '.', '.', '.'
 |];
program = [TEE(TEE2), POP, O('i32.store16_5'), O('i32.store16_5'), O('i32.store16_5'), TEE(TEE2), TEE(TEE1), O('i32.store16_11'), NOP, NOP, NOP, NOP];
% time elapsed: 0.11 s
----------
value = 7;
fgas = [1, 2, 1, 1, 1, 1, 1, 0, 0, 0, 0, 0];
fsize = [1, 1, 1, 1, 1, 1, 1, 1, 1, 1, 1, 1];
states = 
[| in_0, in_1, in_2, in_3, '.', '.', '.', '.', '.', '.'
 | in_0, in_1, in_2, in_3, '.', '.', '.', '.', '.', '.'
 | in_1, in_2, in_3,  '.', '.', '.', '.', '.', '.', '.'
 | in_1, in_2,  '.',  '.', '.', '.', '.', '.', '.', '.'
 | in_1, in_3,  '.',  '.', '.', '.', '.', '.', '.', '.'
 | in_1, in_1,  '.',  '.', '.', '.', '.', '.', '.', '.'
 | in_1,  '.',  '.',  '.', '.', '.', '.', '.', '.', '.'
 |  '.',  '.',  '.',  '.', '.', '.', '.', '.', '.', '.'
 |  '.',  '.',  '.',  '.', '.', '.', '.', '.', '.', '.'
 |  '.',  '.',  '.',  '.', '.', '.', '.', '.', '.', '.'
 |  '.',  '.',  '.',  '.', '.', '.', '.', '.', '.', '.'
 |  '.',  '.',  '.',  '.', '.', '.', '.', '.', '.', '.'
 |  '.',  '.',  '.',  '.', '.', '.', '.', '.', '.', '.'
 |];
register_states = 
[| local_0, local_1, '.', '.', '.', '.', '.'
 | local_0,    in_0, '.', '.', '.', '.', '.'
 | local_0,    in_0, '.', '.', '.', '.', '.'
 | local_0,    in_0, '.', '.', '.', '.', '.'
 | local_0,    in_0, '.', '.', '.', '.', '.'
 | local_0,    in_0, '.', '.', '.', '.', '.'
 | local_0,    in_1, '.', '.', '.', '.', '.'
 |    in_1,    in_1, '.', '.', '.', '.', '.'
 |    in_1,    in_1, '.', '.', '.', '.', '.'
 |    in_1,    in_1, '.', '.', '.', '.', '.'
 |    in_1,    in_1, '.', '.', '.', '.', '.'
 |    in_1,    in_1, '.', '.', '.', '.', '.'
 |    in_1,    in_1, '.', '.', '.', '.', '.'
 |];
program = [TEE(TEE2), POP, O('i32.store16_5'), O('i32.store16_5'), O('i32.store16_11'), S(SET2), S(SET1), NOP, NOP, NOP, NOP, NOP];
% time elapsed: 0.12 s
----------
value = 6;
fgas = [1, 2, 1, 1, 1, 1, 0, 0, 0, 0, 0, 0];
fsize = [1, 1, 1, 1, 1, 1, 1, 1, 1, 1, 1, 1];
states = 
[| in_0, in_1, in_2, in_3, '.', '.', '.', '.', '.', '.'
 | in_0, in_1, in_2, in_3, '.', '.', '.', '.', '.', '.'
 | in_1, in_2, in_3,  '.', '.', '.', '.', '.', '.', '.'
 | in_1, in_3,  '.',  '.', '.', '.', '.', '.', '.', '.'
 | in_1, in_3,  '.',  '.', '.', '.', '.', '.', '.', '.'
 | in_1,  '.',  '.',  '.', '.', '.', '.', '.', '.', '.'
 |  '.',  '.',  '.',  '.', '.', '.', '.', '.', '.', '.'
 |  '.',  '.',  '.',  '.', '.', '.', '.', '.', '.', '.'
 |  '.',  '.',  '.',  '.', '.', '.', '.', '.', '.', '.'
 |  '.',  '.',  '.',  '.', '.', '.', '.', '.', '.', '.'
 |  '.',  '.',  '.',  '.', '.', '.', '.', '.', '.', '.'
 |  '.',  '.',  '.',  '.', '.', '.', '.', '.', '.', '.'
 |  '.',  '.',  '.',  '.', '.', '.', '.', '.', '.', '.'
 |];
register_states = 
[| local_0, local_1, '.', '.', '.', '.', '.'
 | local_0,    in_0, '.', '.', '.', '.', '.'
 | local_0,    in_0, '.', '.', '.', '.', '.'
 | local_0,    in_0, '.', '.', '.', '.', '.'
 |    in_1,    in_0, '.', '.', '.', '.', '.'
 |    in_1,    in_0, '.', '.', '.', '.', '.'
 |    in_1,    in_1, '.', '.', '.', '.', '.'
 |    in_1,    in_1, '.', '.', '.', '.', '.'
 |    in_1,    in_1, '.', '.', '.', '.', '.'
 |    in_1,    in_1, '.', '.', '.', '.', '.'
 |    in_1,    in_1, '.', '.', '.', '.', '.'
 |    in_1,    in_1, '.', '.', '.', '.', '.'
 |    in_1,    in_1, '.', '.', '.', '.', '.'
 |];
program = [TEE(TEE2), POP, O('i32.store16_5'), TEE(TEE1), O('i32.store16_11'), S(SET2), NOP, NOP, NOP, NOP, NOP, NOP];
% time elapsed: 0.12 s
----------
value = 5;
fgas = [1, 1, 1, 1, 1, 0, 0, 0, 0, 0, 0, 0];
fsize = [1, 1, 1, 1, 1, 1, 1, 1, 1, 1, 1, 1];
states = 
[| in_0, in_1, in_2, in_3, '.', '.', '.', '.', '.', '.'
 | in_1, in_2, in_3,  '.', '.', '.', '.', '.', '.', '.'
 | in_1, in_3,  '.',  '.', '.', '.', '.', '.', '.', '.'
 | in_1, in_1,  '.',  '.', '.', '.', '.', '.', '.', '.'
 | in_1,  '.',  '.',  '.', '.', '.', '.', '.', '.', '.'
 |  '.',  '.',  '.',  '.', '.', '.', '.', '.', '.', '.'
 |  '.',  '.',  '.',  '.', '.', '.', '.', '.', '.', '.'
 |  '.',  '.',  '.',  '.', '.', '.', '.', '.', '.', '.'
 |  '.',  '.',  '.',  '.', '.', '.', '.', '.', '.', '.'
 |  '.',  '.',  '.',  '.', '.', '.', '.', '.', '.', '.'
 |  '.',  '.',  '.',  '.', '.', '.', '.', '.', '.', '.'
 |  '.',  '.',  '.',  '.', '.', '.', '.', '.', '.', '.'
 |  '.',  '.',  '.',  '.', '.', '.', '.', '.', '.', '.'
 |];
register_states = 
[| local_0, local_1, '.', '.', '.', '.', '.'
 |    in_0, local_1, '.', '.', '.', '.', '.'
 |    in_0, local_1, '.', '.', '.', '.', '.'
 |    in_0, local_1, '.', '.', '.', '.', '.'
 |    in_1, local_1, '.', '.', '.', '.', '.'
 |    in_1,    in_1, '.', '.', '.', '.', '.'
 |    in_1,    in_1, '.', '.', '.', '.', '.'
 |    in_1,    in_1, '.', '.', '.', '.', '.'
 |    in_1,    in_1, '.', '.', '.', '.', '.'
 |    in_1,    in_1, '.', '.', '.', '.', '.'
 |    in_1,    in_1, '.', '.', '.', '.', '.'
 |    in_1,    in_1, '.', '.', '.', '.', '.'
 |    in_1,    in_1, '.', '.', '.', '.', '.'
 |];
program = [S(SET1), O('i32.store16_5'), O('i32.store16_11'), S(SET1), S(SET2), NOP, NOP, NOP, NOP, NOP, NOP, NOP];
% time elapsed: 0.12 s
----------
==========
% time elapsed: 0.12 s
% [value > 4]
